15
1 6
2 6
3 6
4 8
5 1
6 5
7 8
8 5
9 8
10 1
11 10
12 4
13 2
14 8
54
0 1 83
1 0 83
0 2 19
2 0 19
0 3 17
3 0 17
0 4 96
4 0 96
0 5 22
5 0 22
0 6 5
6 0 5
0 7 25
7 0 25
0 8 58
8 0 58
0 9 2
9 0 2
0 10 32
10 0 32
0 11 77
11 0 77
0 12 25
12 0 25
0 13 54
13 0 54
0 14 77
14 0 77
1 4 89
1 10 6
1 13 4
1 14 78
3 7 78
3 9 98
3 13 35
4 10 44
5 6 12
5 7 65
5 8 3
5 9 70
5 13 17
5 14 76
6 12 18
6 13 2
7 8 11
7 11 23
8 9 46
8 10 42
8 11 43
8 12 59
8 13 6
10 11 55
10 14 41
12 13 49
